circuit_heights=[3, 4, 5, 6, 7, 8, 9, 10, 11, 12, 14, 15, 16, 17, 19, 3, 4, 5, 7, 8, 11, 14];
circuit_widths=[3, 3, 3, 3, 3, 3, 3, 3, 3, 3, 3, 3, 3, 3, 3, 4, 4, 4, 4, 4, 4, 4];
max_height=208;
min_height=26;
n_circuits=22;
plate_width=26;
